p tw 336 1024
1 33
2 34
3 35
4 36
5 37
6 38
7 39
8 40
9 41
10 42
11 43
12 44
13 45
14 46
15 47
16 48
17 49
18 50
19 51
20 52
21 53
22 54
23 55
24 56
25 57
26 58
27 59
28 60
29 61
30 62
31 63
32 64
33 91
33 93
33 94
33 95
34 65
34 73
34 74
34 75
35 71
35 100
35 102
35 103
36 94
36 107
36 108
36 109
37 119
37 135
37 138
37 139
38 70
38 74
38 100
38 101
39 116
39 135
39 136
39 137
40 76
40 80
40 81
40 82
41 88
41 96
41 98
41 99
42 69
42 70
42 71
42 72
43 66
43 83
43 85
43 86
44 77
44 87
44 91
44 92
45 118
45 125
45 132
45 134
46 76
46 77
46 78
46 79
47 65
47 66
47 67
47 68
48 67
48 93
48 96
48 97
49 114
49 140
49 142
49 144
50 104
50 110
50 111
50 112
51 80
51 118
51 119
51 120
52 98
52 102
52 132
52 133
53 123
53 136
53 142
53 143
54 111
54 127
54 129
54 131
55 89
55 108
55 125
55 126
56 107
56 113
56 116
56 117
57 85
57 104
57 105
57 106
58 81
58 110
58 127
58 128
59 122
59 138
59 140
59 141
60 69
60 73
60 83
60 84
61 78
61 121
61 129
61 130
62 121
62 122
62 123
62 124
63 87
63 88
63 89
63 90
64 105
64 113
64 114
64 115
65 66
65 67
65 68
65 73
65 74
65 75
66 67
66 68
66 83
66 85
66 86
67 68
67 93
67 96
67 97
68 145
68 146
68 147
68 148
69 70
69 71
69 72
69 73
69 83
69 84
70 71
70 72
70 74
70 100
70 101
71 72
71 100
71 102
71 103
72 149
72 150
72 151
72 152
73 74
73 75
73 83
73 84
74 75
74 100
74 101
75 145
75 153
75 154
75 155
76 77
76 78
76 79
76 80
76 81
76 82
77 78
77 79
77 87
77 91
77 92
78 79
78 121
78 129
78 130
79 156
79 157
79 158
79 159
80 81
80 82
80 118
80 119
80 120
81 82
81 110
81 127
81 128
82 156
82 160
82 161
82 162
83 84
83 85
83 86
84 149
84 153
84 163
84 164
85 86
85 104
85 105
85 106
86 146
86 163
86 165
86 166
87 88
87 89
87 90
87 91
87 92
88 89
88 90
88 96
88 98
88 99
89 90
89 108
89 125
89 126
90 167
90 168
90 169
90 170
91 92
91 93
91 94
91 95
92 157
92 167
92 171
92 172
93 94
93 95
93 96
93 97
94 95
94 107
94 108
94 109
95 171
95 173
95 174
95 175
96 97
96 98
96 99
97 147
97 173
97 176
97 177
98 99
98 102
98 132
98 133
99 168
99 176
99 178
99 179
100 101
100 102
100 103
101 150
101 154
101 180
101 181
102 103
102 132
102 133
103 151
103 180
103 182
103 183
104 105
104 106
104 110
104 111
104 112
105 106
105 113
105 114
105 115
106 165
106 184
106 185
106 186
107 108
107 109
107 113
107 116
107 117
108 109
108 125
108 126
109 174
109 187
109 188
109 189
110 111
110 112
110 127
110 128
111 112
111 127
111 129
111 131
112 184
112 190
112 191
112 192
113 114
113 115
113 116
113 117
114 115
114 140
114 142
114 144
115 185
115 193
115 194
115 195
116 117
116 135
116 136
116 137
117 187
117 193
117 196
117 197
118 119
118 120
118 125
118 132
118 134
119 120
119 135
119 138
119 139
120 160
120 198
120 199
120 200
121 122
121 123
121 124
121 129
121 130
122 123
122 124
122 138
122 140
122 141
123 124
123 136
123 142
123 143
124 201
124 202
124 203
124 204
125 126
125 132
125 134
126 169
126 188
126 205
126 206
127 128
127 129
127 131
128 161
128 190
128 207
128 208
129 130
129 131
130 158
130 201
130 209
130 210
131 191
131 207
131 209
131 211
132 133
132 134
133 178
133 182
133 212
133 213
134 198
134 205
134 212
134 214
135 136
135 137
135 138
135 139
136 137
136 142
136 143
137 196
137 215
137 216
137 217
138 139
138 140
138 141
139 199
139 215
139 218
139 219
140 141
140 142
140 144
141 202
141 218
141 220
141 221
142 143
142 144
143 203
143 216
143 222
143 223
144 194
144 220
144 222
144 224
145 146
145 147
145 148
145 153
145 154
145 155
146 147
146 148
146 163
146 165
146 166
147 148
147 173
147 176
147 177
148 225
148 226
148 227
148 228
149 150
149 151
149 152
149 153
149 163
149 164
150 151
150 152
150 154
150 180
150 181
151 152
151 180
151 182
151 183
152 229
152 230
152 231
152 232
153 154
153 155
153 163
153 164
154 155
154 180
154 181
155 225
155 233
155 234
155 235
156 157
156 158
156 159
156 160
156 161
156 162
157 158
157 159
157 167
157 171
157 172
158 159
158 201
158 209
158 210
159 236
159 237
159 238
159 239
160 161
160 162
160 198
160 199
160 200
161 162
161 190
161 207
161 208
162 236
162 240
162 241
162 242
163 164
163 165
163 166
164 229
164 233
164 243
164 244
165 166
165 184
165 185
165 186
166 226
166 243
166 245
166 246
167 168
167 169
167 170
167 171
167 172
168 169
168 170
168 176
168 178
168 179
169 170
169 188
169 205
169 206
170 247
170 248
170 249
170 250
171 172
171 173
171 174
171 175
172 237
172 247
172 251
172 252
173 174
173 175
173 176
173 177
174 175
174 187
174 188
174 189
175 251
175 253
175 254
175 255
176 177
176 178
176 179
177 227
177 253
177 256
177 257
178 179
178 182
178 212
178 213
179 248
179 256
179 258
179 259
180 181
180 182
180 183
181 230
181 234
181 260
181 261
182 183
182 212
182 213
183 231
183 260
183 262
183 263
184 185
184 186
184 190
184 191
184 192
185 186
185 193
185 194
185 195
186 245
186 264
186 265
186 266
187 188
187 189
187 193
187 196
187 197
188 189
188 205
188 206
189 254
189 267
189 268
189 269
190 191
190 192
190 207
190 208
191 192
191 207
191 209
191 211
192 264
192 270
192 271
192 272
193 194
193 195
193 196
193 197
194 195
194 220
194 222
194 224
195 265
195 273
195 274
195 275
196 197
196 215
196 216
196 217
197 267
197 273
197 276
197 277
198 199
198 200
198 205
198 212
198 214
199 200
199 215
199 218
199 219
200 240
200 278
200 279
200 280
201 202
201 203
201 204
201 209
201 210
202 203
202 204
202 218
202 220
202 221
203 204
203 216
203 222
203 223
204 281
204 282
204 283
204 284
205 206
205 212
205 214
206 249
206 268
206 285
206 286
207 208
207 209
207 211
208 241
208 270
208 287
208 288
209 210
209 211
210 238
210 281
210 289
210 290
211 271
211 287
211 289
211 291
212 213
212 214
213 258
213 262
213 292
213 293
214 278
214 285
214 292
214 294
215 216
215 217
215 218
215 219
216 217
216 222
216 223
217 276
217 295
217 296
217 297
218 219
218 220
218 221
219 279
219 295
219 298
219 299
220 221
220 222
220 224
221 282
221 298
221 300
221 301
222 223
222 224
223 283
223 296
223 302
223 303
224 274
224 300
224 302
224 304
225 226
225 227
225 228
225 233
225 234
225 235
226 227
226 228
226 243
226 245
226 246
227 228
227 253
227 256
227 257
228 322
229 230
229 231
229 232
229 233
229 243
229 244
230 231
230 232
230 234
230 260
230 261
231 232
231 260
231 262
231 263
232 327
233 234
233 235
233 243
233 244
234 235
234 260
234 261
235 335
236 237
236 238
236 239
236 240
236 241
236 242
237 238
237 239
237 247
237 251
237 252
238 239
238 281
238 289
238 290
239 323
240 241
240 242
240 278
240 279
240 280
241 242
241 270
241 287
241 288
242 329
243 244
243 245
243 246
244 309
245 246
245 264
245 265
245 266
246 326
247 248
247 249
247 250
247 251
247 252
248 249
248 250
248 256
248 258
248 259
249 250
249 268
249 285
249 286
250 306
251 252
251 253
251 254
251 255
252 325
253 254
253 255
253 256
253 257
254 255
254 267
254 268
254 269
255 336
256 257
256 258
256 259
257 321
258 259
258 262
258 292
258 293
259 328
260 261
260 262
260 263
261 331
262 263
262 292
262 293
263 334
264 265
264 266
264 270
264 271
264 272
265 266
265 273
265 274
265 275
266 312
267 268
267 269
267 273
267 276
267 277
268 269
268 285
268 286
269 333
270 271
270 272
270 287
270 288
271 272
271 287
271 289
271 291
272 319
273 274
273 275
273 276
273 277
274 275
274 300
274 302
274 304
275 305
276 277
276 295
276 296
276 297
277 313
278 279
278 280
278 285
278 292
278 294
279 280
279 295
279 298
279 299
280 318
281 282
281 283
281 284
281 289
281 290
282 283
282 284
282 298
282 300
282 301
283 284
283 296
283 302
283 303
284 307
285 286
285 292
285 294
286 314
287 288
287 289
287 291
288 311
289 290
289 291
290 308
291 315
292 293
292 294
293 317
294 324
295 296
295 297
295 298
295 299
296 297
296 302
296 303
297 330
298 299
298 300
298 301
299 332
300 301
300 302
300 304
301 310
302 303
302 304
303 316
304 320
